unsat
(define-fun inv ((s (_ BitVec 4)) (t (_ BitVec 4))) (_ BitVec 4) (bvnot (bvsdiv #b0001 t)))
3.64user 0.01system 0:03.66elapsed 99%CPU (0avgtext+0avgdata 45060maxresident)k
0inputs+8outputs (0major+5784minor)pagefaults 0swaps
